COLUMNS

passenger_count
pickup_ID
dropoff_ID
request_time_sec
pickup_district
dropoff_district
LDuals
IDuals
vehicle_ID
pick_position
drop_position

REQUESTS_INFO
2      345       748       30614     299       290       219       219       15        1         4         
2      433       621       30675     52        280       97        97        19        1         2         
1      923       970       30657     290       290       153       153       43        1         2         
1      393       670       30686     52        280       93        93        79        1         2         
1      479       483       30681     52        189       111       111       144       1         2         
2      981       673       30649     291       189       240       240       161       1         2         
1      1109      1106      30652     291       291       248       248       194       1         2         
1      680       652       30668     290       189       132       132       210       1         2         
1      256       716       30669     87        189       130       130       221       1         2         
2      1010      330       30669     290       127       122       122       230       1         3         
1      1132      882       30669     291       290       128       128       233       1         3         
1      802       726       30637     291       290       168       168       296       1         4         
1      642       272       30672     131       127       145       145       301       1         2         
3      874       650       30679     291       189       159       159       380       1         3         
1      291       674       30679     87        189       119       119       384       1         3         
2      734       529       30681     131       189       126       126       406       1         2         
1      551       480       30689     189       52        128       128       541       1         2         
4      1026      1151      30664     291       291       229       229       556       1         2         
1      816       746       30558     290       290       242       242       567       1         2         
3      1168      968       30681     291       290       167       167       592       1         3         
2      458       734       30660     52        131       131       131       675       1         2         
3      874       650       30679     291       189       159       159       685       1         3         
2      1475      544       30630     296       52        233       233       706       1         4         
2      1488      1024      30638     296       291       238       238       706       2         3         
1      200       270       30661     87        127       161       161       726       1         3         
2      1065      662       30634     291       131       234       234       737       1         2         
1      924       1357      30686     290       129       132       132       773       1         3         
1      873       1045      30633     291       291       179       179       777       1         3         
2      1088      720       30664     291       290       193       193       778       1         2         
1      778       376       30672     131       168       136       136       826       1         4         
3      550       671       30645     189       280       161       161       849       1         2         
2      234       219       30663     87        87        142       142       904       1         2         
4      745       599       30679     290       280       133       133       940       1         2         
1      397       160       30666     168       54        111       111       943       1         2         
1      373       533       30662     119       199       124       124       961       1         2         
1      836       378       30674     290       168       97        97        1014      1         3         
1      972       535       30678     290       189       116       116       1051      1         2         
1      894       983       30603     291       291       239       239       1109      1         2         
1      948       859       30681     290       290       119       119       1155      1         2         
1      1091      781       30637     291       291       232       232       1183      1         3         
1      772       669       30668     290       280       121       121       1193      1         3         
1      693       395       30664     280       100       134       134       1210      1         4         
1      215       175       30679     178       266       106       106       1217      1         3         
1      938       1086      30659     291       291       173       173       1235      1         3         
1      526       616       30655     52        131       158       158       1236      1         2         
1      884       696       30685     290       189       84        84        1239      1         4         
1      277       858       30640     87        290       164       164       1243      1         2         
1      462       115       30685     189       9         104       104       1259      1         3         
1      662       629       30684     131       189       122       122       1266      1         3         
1      980       968       30617     291       290       213       213       1308      1         2         
1      1308      1286      30675     129       129       115       115       1349      1         2         
2      1021      748       30606     291       290       308       308       1360      1         2         
1      769       760       30623     290       291       164       164       1378      1         3         
1      772       353       30661     290       119       128       128       1418      1         3         
4      620       416       30690     131       100       0         0         0         0         0         
1      691       703       30691     131       290       0         0         0         0         0         
1      460       394       30691     189       100       0         0         0         0         0         
1      310       117       30691     127       286       0         0         0         0         0         
2      794       250       30691     290       127       0         0         0         0         0         
4      267       116       30691     266       9         0         0         0         0         0         
1      354       604       30691     119       189       0         0         0         0         0         
1      308       604       30691     127       189       0         0         0         0         0         
1      568       1065      30692     52        291       0         0         0         0         0         
1      607       416       30692     189       100       0         0         0         0         0         
1      504       368       30692     52        299       0         0         0         0         0         
1      351       574       30692     52        189       0         0         0         0         0         
1      654       772       30693     189       290       0         0         0         0         0         
1      65        314       30693     98        119       0         0         0         0         0         
2      291       416       30693     87        100       0         0         0         0         0         
3      444       604       30693     168       189       0         0         0         0         0         
3      43        391       30694     9         52        0         0         0         0         0         
3      43        391       30694     9         52        0         0         0         0         0         
3      460       358       30694     189       168       0         0         0         0         0         
3      460       358       30694     189       168       0         0         0         0         0         
1      726       554       30694     290       189       0         0         0         0         0         
1      512       627       30694     199       189       0         0         0         0         0         
1      701       726       30694     290       290       0         0         0         0         0         
1      905       35        30695     290       98        0         0         0         0         0         
3      946       507       30695     290       189       0         0         0         0         0         
3      946       507       30695     290       189       0         0         0         0         0         
1      702       859       30696     290       290       0         0         0         0         0         
1      275       617       30696     87        131       0         0         0         0         0         
1      723       1011      30696     290       84        0         0         0         0         0         
3      464       327       30696     168       299       0         0         0         0         0         
1      194       627       30696     207       189       0         0         0         0         0         
3      464       327       30696     168       299       0         0         0         0         0         
1      573       604       30697     189       189       0         0         0         0         0         
4      675       723       30697     189       290       0         0         0         0         0         
1      466       1530      30697     199       296       0         0         0         0         0         
1      233       579       30697     206       189       0         0         0         0         0         
1      745       627       30697     290       189       0         0         0         0         0         
1      120       352       30697     57        119       0         0         0         0         0         
1      483       581       30697     189       189       0         0         0         0         0         
2      410       652       30698     52        189       0         0         0         0         0         
3      410       652       30698     52        189       0         0         0         0         0         
1      745       604       30698     290       189       0         0         0         0         0         
1      527       439       30698     52        189       0         0         0         0         0         
1      527       604       30698     52        189       0         0         0         0         0         
4      693       629       30698     280       189       0         0         0         0         0         
1      523       388       30698     52        299       0         0         0         0         0         
1      903       839       30698     290       290       0         0         0         0         0         
1      485       248       30699     189       266       0         0         0         0         0         
1      598       581       30699     189       189       0         0         0         0         0         
1      768       575       30699     290       189       0         0         0         0         0         
1      972       631       30699     290       189       0         0         0         0         0         
4      286       597       30699     299       131       0         0         0         0         0         
1      238       331       30699     87        127       0         0         0         0         0         
1      813       483       30700     290       189       0         0         0         0         0         
1      603       697       30700     189       189       0         0         0         0         0         
1      983       674       30700     291       189       0         0         0         0         0         
1      772       605       30700     290       189       0         0         0         0         0         
2      755       43        30700     131       9         0         0         0         0         0         
3      755       43        30700     131       9         0         0         0         0         0         
1      646       616       30701     280       131       0         0         0         0         0         
2      600       79        30701     280       98        0         0         0         0         0         
1      745       835       30701     290       290       0         0         0         0         0         
1      353       463       30701     119       168       0         0         0         0         0         
1      646       616       30701     280       131       0         0         0         0         0         
1      981       717       30701     291       189       0         0         0         0         0         
1      304       118       30701     299       286       0         0         0         0         0         
1      721       749       30701     290       290       0         0         0         0         0         
1      233       252       30701     206       206       0         0         0         0         0         
1      791       905       30702     290       290       0         0         0         0         0         
1      735       577       30702     131       189       0         0         0         0         0         
1      556       189       30702     199       286       0         0         0         0         0         
2      408       20        30702     299       98        0         0         0         0         0         
1      485       335       30702     189       119       0         0         0         0         0         
2      485       350       30702     189       127       0         0         0         0         0         
3      485       350       30702     189       127       0         0         0         0         0         
1      584       377       30702     189       168       0         0         0         0         0         
1      296       350       30703     277       127       0         0         0         0         0         
1      599       461       30703     280       189       0         0         0         0         0         
1      849       603       30703     291       189       0         0         0         0         0         
1      1181      1181      30703     84        84        0         0         0         0         0         
1      723       690       30703     290       131       0         0         0         0         0         
1      557       727       30703     189       290       0         0         0         0         0         
2      395       377       30704     100       168       0         0         0         0         0         
3      395       377       30704     100       168       0         0         0         0         0         
3      286       533       30704     299       199       0         0         0         0         0         
3      286       533       30704     299       199       0         0         0         0         0         
1      881       1010      30704     290       290       0         0         0         0         0         
1      60        506       30704     9         189       0         0         0         0         0         
1      527       438       30704     52        100       0         0         0         0         0         
1      904       769       30704     290       290       0         0         0         0         0         
1      560       652       30704     189       189       0         0         0         0         0         
1      959       669       30705     291       280       0         0         0         0         0         
2      1132      1032      30706     291       84        0         0         0         0         0         
2      330       698       30706     127       189       0         0         0         0         0         
1      702       557       30706     290       189       0         0         0         0         0         
3      528       581       30706     52        189       0         0         0         0         0         
1      1001      602       30706     291       189       0         0         0         0         0         
1      457       410       30706     52        52        0         0         0         0         0         
1      852       905       30706     291       290       0         0         0         0         0         
1      499       555       30707     52        199       0         0         0         0         0         
2      745       758       30707     290       131       0         0         0         0         0         
1      1022      1010      30707     291       290       0         0         0         0         0         
3      645       639       30707     280       131       0         0         0         0         0         
1      949       79        30707     290       98        0         0         0         0         0         
1      673       267       30708     189       266       0         0         0         0         0         
1      486       629       30708     199       189       0         0         0         0         0         
2      31        526       30708     9         52        0         0         0         0         0         
1      947       804       30708     290       291       0         0         0         0         0         
1      509       576       30708     199       189       0         0         0         0         0         
3      63        349       30708     98        127       0         0         0         0         0         
2      504       436       30708     52        100       0         0         0         0         0         
3      504       436       30708     52        100       0         0         0         0         0         
1      441       629       30708     168       189       0         0         0         0         0         
2      65        78        30709     98        9         0         0         0         0         0         
1      369       430       30709     52        52        0         0         0         0         0         
3      558       651       30710     189       189       0         0         0         0         0         
2      961       527       30710     291       52        0         0         0         0         0         
2      558       651       30710     189       189       0         0         0         0         0         
1      813       926       30711     290       290       0         0         0         0         0         
1      412       737       30711     52        189       0         0         0         0         0         
1      373       504       30711     119       52        0         0         0         0         0         
1      330       134       30711     127       9         0         0         0         0         0         
1      533       506       30711     199       189       0         0         0         0         0         
1      484       333       30711     189       119       0         0         0         0         0         
1      609       698       30712     189       189       0         0         0         0         0         
1      484       628       30712     189       189       0         0         0         0         0         
1      925       626       30712     290       189       0         0         0         0         0         
1      465       96        30712     199       9         0         0         0         0         0         
1      387       533       30712     299       199       0         0         0         0         0         
1      597       568       30712     131       52        0         0         0         0         0         
1      328       511       30712     299       199       0         0         0         0         0         
1      598       674       30713     189       189       0         0         0         0         0         
1      510       479       30713     199       52        0         0         0         0         0         
1      850       96        30713     291       9         0         0         0         0         0         
1      654       398       30713     189       168       0         0         0         0         0         
1      748       32        30713     290       98        0         0         0         0         0         
1      483       593       30715     189       52        0         0         0         0         0         
1      772       558       30715     290       189       0         0         0         0         0         
1      464       417       30715     168       100       0         0         0         0         0         
1      735       643       30715     131       131       0         0         0         0         0         
1      556       718       30715     199       189       0         0         0         0         0         
1      881       649       30716     290       189       0         0         0         0         0         
1      924       1010      30716     290       290       0         0         0         0         0         
1      345       116       30716     299       9         0         0         0         0         0         
1      644       715       30716     131       131       0         0         0         0         0         
1      839       488       30717     290       199       0         0         0         0         0         
1      556       79        30717     199       98        0         0         0         0         0         
1      461       627       30717     189       189       0         0         0         0         0         
1      369       458       30717     52        52        0         0         0         0         0         
1      115       456       30717     9         52        0         0         0         0         0         
1      838       119       30717     290       286       0         0         0         0         0         
2      894       603       30717     291       189       0         0         0         0         0         
1      1068      735       30718     291       131       0         0         0         0         0         
1      559       459       30718     189       189       0         0         0         0         0         
3      534       580       30718     199       189       0         0         0         0         0         
1      466       47        30719     199       98        0         0         0         0         0         
2      769       488       30719     290       199       0         0         0         0         0         
1      511       604       30719     199       189       0         0         0         0         0         
